33D32945 STP File, STP Format Version 1.0

SECTION Comments
Name "cube_n11_d3_s28"
Problem "Euclidean Steiner Tree Problem"
Remark "Generated with STPGenerator. 3 dimensions."
END

SECTION Graph
Nodes 11
END

SECTION Coordinates
DDD 0 0.5171551050 0.0449436945 0.4524295369
DDD 1 0.4422129730 0.1277577337 0.1569511728
DDD 2 0.0837527169 0.7310733133 0.0224596341
DDD 3 0.3412099454 0.2301648130 0.4956663146
DDD 4 0.7013661609 0.4085638460 0.7201248397
DDD 5 0.8276713341 0.0367873907 0.8458900362
DDD 6 0.8608830030 0.4750771162 0.9620311726
DDD 7 0.9602391431 0.1126118736 0.8147720088
DDD 8 0.3593030024 0.8427590313 0.2819298144
DDD 9 0.8907198030 0.9989762641 0.1782195168
DDD 10 0.6481475037 0.5161313692 0.2231632118
END
